Filename,Size,Unit
1 CD mot stress01.mp3,59.7,K
1 CD mot stress02.mp3,617.26,K
1 CD mot stress03.mp3,2.51,M
1 CD mot stress04.mp3,1.19,M
1 CD mot stress05.mp3,402.97,K
1 CD mot stress06.mp3,1.29,M
1 CD mot stress07.mp3,3.14,M
1 CD mot stress08.mp3,886.03,K
1 CD mot stress09.mp3,1.91,M
1 CD mot stress10.mp3,4.21,M
1 CD mot stress11.mp3,1.4,M
1 CD mot stress12.mp3,2.46,M
1 CD mot stress13.mp3,3.07,M
1 CD mot stress14.mp3,1.21,M
1 CD mot stress15.mp3,1.37,M
1 CD mot stress16.mp3,145.42,K
